InboundTrucks  = 30;
OutboundTrucks = 30;
InboundDoors   = 4;
OutboundDoors  = 4;
ReleaseTime    = [4,18,2,8,3,15,117,77,80,103,68,120,46,32,82,23,69,75,97,117,118,20,109,77,54,112,49,95,33,60];
UnloadTime     = [5,8,6,13,11,7,23,33,21,28,30,34,22,34,28,16,29,11,10,33,32,33,25,32,32,30,29,33,16,26];
LoadTime       = [14,7,5,14,6,15,23,14,13,18,23,12,22,12,19,21,15,22,11,14,13,16,10,23,20,16,14,24,16,11];
TransferTime   = [| 3,0,0,2,0,1,0,0,0,0,0,0,0,0,0,0,0,0,0,0,0,0,5,0,0,0,0,0,0,0 | 4,1,0,2,4,2,0,0,0,0,0,0,0,0,0,0,0,0,0,0,0,0,0,0,0,0,0,0,0,0 | 3,0,0,0,1,1,0,7,0,0,0,0,0,0,0,0,0,0,0,0,0,0,0,0,0,0,0,0,0,0 | 3,4,1,1,0,2,0,0,0,0,0,0,0,0,0,0,0,0,0,0,0,0,0,0,0,0,0,0,0,0 | 3,0,4,4,1,3,0,0,0,0,0,0,0,0,0,0,0,0,0,8,0,0,0,0,0,0,0,0,0,0 | 0,2,2,0,1,0,0,0,0,0,0,0,0,0,0,0,0,0,0,0,0,0,0,0,0,0,0,0,0,0 | 6,0,0,0,0,0,0,0,0,0,0,0,0,0,0,7,8,0,0,4,0,3,5,0,8,6,0,8,0,0 | 0,0,0,0,0,0,4,0,0,0,0,0,5,0,0,0,8,8,0,0,6,0,0,0,0,8,0,8,6,3 | 0,0,0,7,0,0,0,8,0,4,0,0,0,0,0,7,0,0,6,0,3,7,0,0,4,0,6,5,3,0 | 8,0,0,0,0,0,0,3,0,8,0,0,8,0,4,0,0,0,0,0,0,4,6,6,0,4,0,0,3,0 | 4,7,0,7,0,0,0,0,4,4,5,3,4,0,0,4,0,4,3,0,0,0,0,3,0,0,4,0,0,0 | 0,6,4,0,0,0,0,0,0,7,0,6,0,3,0,0,0,0,7,5,0,0,0,0,3,5,0,8,8,0 | 0,8,0,0,0,0,0,0,0,0,0,0,0,5,0,0,0,0,0,3,5,0,0,0,0,0,8,0,0,0 | 0,8,0,0,0,0,0,0,0,3,0,8,4,0,0,3,8,0,0,0,4,0,0,3,4,3,0,5,0,8 | 0,0,7,0,0,0,0,0,0,0,6,0,0,0,0,8,5,8,3,0,0,6,4,8,0,4,0,8,0,0 | 0,4,5,0,0,0,4,0,0,6,0,0,6,0,4,8,0,0,0,0,5,5,8,0,6,4,0,3,0,8 | 4,0,5,8,0,0,7,5,0,0,0,5,7,3,0,0,0,5,0,3,0,0,8,7,0,7,0,0,7,6 | 0,0,0,8,3,8,0,0,0,0,6,6,0,0,6,0,0,0,6,4,0,0,6,5,3,0,6,0,0,0 | 0,6,0,0,0,0,0,5,0,0,0,0,0,0,0,3,0,0,0,0,0,8,4,8,4,4,6,0,0,0 | 3,0,6,0,0,0,0,5,5,0,8,6,0,3,0,0,0,4,4,0,0,4,5,0,5,0,8,0,4,6 | 6,0,0,0,0,0,6,4,0,7,0,0,7,6,0,0,0,0,4,0,5,0,0,0,0,0,5,0,8,4 | 3,0,6,0,3,0,0,0,4,5,0,0,8,0,0,0,8,0,0,4,7,7,0,4,0,0,5,0,0,0 | 0,0,0,0,0,0,0,0,0,8,0,0,4,0,0,0,0,0,0,7,0,0,0,0,7,0,0,0,0,0 | 0,0,6,0,0,0,6,7,0,8,0,7,0,0,4,8,0,5,5,6,0,3,0,0,6,0,6,5,0,3 | 0,0,0,3,3,0,0,0,0,7,0,0,5,0,0,0,0,0,0,0,0,0,6,8,0,0,0,0,0,5 | 8,0,0,0,0,0,6,4,0,0,0,0,0,8,7,0,0,0,0,0,8,0,6,0,0,0,0,5,0,6 | 0,3,0,0,0,0,0,0,0,5,7,0,4,0,8,6,0,3,0,0,0,6,0,4,7,5,3,0,0,0 | 6,0,8,8,6,0,6,7,0,5,5,0,0,0,0,0,5,0,0,0,6,5,8,0,0,0,0,0,0,0 | 0,0,4,0,3,0,6,0,5,6,5,0,0,4,0,0,3,5,5,0,0,0,0,0,7,0,0,3,8,5 | 0,7,0,8,0,0,0,0,0,0,0,0,0,0,7,0,0,0,4,0,0,5,0,0,0,0,3,0,0,4 |];
